p cnf 50 10
x 5 7 8 9 12 -15 17 24 25 26 -27 -28 29 30 31 32 34 -36 -37 -38 -40 44 -45 48 0
x 1 -2 8 -11 -12 13 16 17 18 -24 -25 -26 -28 29 -30 -31 -32 -33 -36 39 40 41 -43 -44 45 -46 -47 48 49 0
x 2 3 -6 7 9 13 -15 -16 18 19 -20 22 -25 27 -29 -30 -31 36 -37 -38 -39 41 -42 44 -46 49 0
x -2 -3 -4 -11 12 13 16 -18 19 20 -21 -22 23 24 -26 27 -29 -31 32 -33 34 35 -36 42 -43 -44 -46 47 50 0
x -1 2 4 5 6 -9 -14 16 -18 21 22 -24 31 -33 35 37 38 -39 -41 42 -43 -46 -48 0
x 1 2 -3 4 5 7 8 12 13 14 -16 -17 -18 23 -24 25 -28 29 -30 -33 -34 41 44 -45 46 47 48 49 50 0
x 1 2 4 6 8 11 -18 -19 -23 -26 27 28 -29 30 -31 35 36 -37 -38 39 40 42 44 -46 -49 50 0
x -2 -3 5 -7 -10 13 -15 -18 -23 24 -25 26 27 30 -31 32 33 -35 -38 40 -42 -44 45 47 0
x 3 4 -9 10 11 -15 -16 17 -20 21 23 -25 29 30 31 32 34 35 43 44 -47 49 -50 0
x -1 -2 -3 -4 5 6 7 -9 -13 14 16 -18 21 -23 -25 28 -29 32 34 -35 38 42 -43 45 48 -49 0
g -15